\ LP format - for model browsing. Use MPS format to capture full model detail.
Minimize
  C
Subject To
 init_flow(0): x(1,i,0,1,0) = 1
 init_flow(1): x(2,i,0,1,0) = 1
 init_flow(2): x(3,i,0,2,0) = 1
 final_flow(0): x(1,3,3) + x(1,3,4) + x(1,3,5) + x(1,3,6) + x(1,3,7)
   + x(1,3,8) + x(1,3,9) + x(1,3,10) + x(1,3,11) + x(1,3,12) + x(1,3,13)
   = 1
 final_flow(1): x(2,2,3) + x(2,2,4) + x(2,2,5) + x(2,2,6) + x(2,2,7)
   + x(2,2,8) + x(2,2,9) + x(2,2,10) + x(2,2,11) + x(2,2,12) + x(2,2,13)
   = 1
 final_flow(2): x(3,3,6) + x(3,3,7) + x(3,3,8) + x(3,3,9) + x(3,3,10)
   + x(3,3,11) + x(3,3,12) + x(3,3,13) + x(3,3,14) = 1
 flow(1,1,0): x(1,i,0,1,0) - x(1,1,0) - e(1,1,0) = 0
 flow(1,1,1): e(1,1,0) - x(1,1,1) - e(1,1,1) = 0
 flow(1,2,1): x(1,1,0) - x(1,2,1) - e(1,2,1) = 0
 flow(1,1,2): e(1,1,1) - x(1,1,2) - e(1,1,2) = 0
 flow(1,2,2): x(1,1,1) + e(1,2,1) - x(1,2,2) - e(1,2,2) = 0
 flow(1,1,3): e(1,1,2) - x(1,1,3) - e(1,1,3) = 0
 flow(1,2,3): x(1,1,2) + e(1,2,2) - x(1,2,3) - e(1,2,3) = 0
 flow(1,3,3): x(1,2,1) - x(1,3,3) - e(1,3,3) = 0
 flow(1,1,4): e(1,1,3) - x(1,1,4) - e(1,1,4) = 0
 flow(1,2,4): x(1,1,3) + e(1,2,3) - x(1,2,4) - e(1,2,4) = 0
 flow(1,3,4): x(1,2,2) + e(1,3,3) - x(1,3,4) - e(1,3,4) = 0
 flow(1,1,5): e(1,1,4) - x(1,1,5) - e(1,1,5) = 0
 flow(1,2,5): x(1,1,4) + e(1,2,4) - x(1,2,5) - e(1,2,5) = 0
 flow(1,3,5): x(1,2,3) + e(1,3,4) - x(1,3,5) - e(1,3,5) = 0
 flow(1,1,6): e(1,1,5) - x(1,1,6) - e(1,1,6) = 0
 flow(1,2,6): x(1,1,5) + e(1,2,5) - x(1,2,6) - e(1,2,6) = 0
 flow(1,3,6): x(1,2,4) + e(1,3,5) - x(1,3,6) - e(1,3,6) = 0
 flow(1,1,7): e(1,1,6) - x(1,1,7) - e(1,1,7) = 0
 flow(1,2,7): x(1,1,6) + e(1,2,6) - x(1,2,7) - e(1,2,7) = 0
 flow(1,3,7): x(1,2,5) + e(1,3,6) - x(1,3,7) - e(1,3,7) = 0
 flow(1,1,8): e(1,1,7) - x(1,1,8) - e(1,1,8) = 0
 flow(1,2,8): x(1,1,7) + e(1,2,7) - x(1,2,8) - e(1,2,8) = 0
 flow(1,3,8): x(1,2,6) + e(1,3,7) - x(1,3,8) - e(1,3,8) = 0
 flow(1,1,9): e(1,1,8) - x(1,1,9) - e(1,1,9) = 0
 flow(1,2,9): x(1,1,8) + e(1,2,8) - x(1,2,9) - e(1,2,9) = 0
 flow(1,3,9): x(1,2,7) + e(1,3,8) - x(1,3,9) - e(1,3,9) = 0
 flow(1,1,10): e(1,1,9) - x(1,1,10) = 0
 flow(1,2,10): x(1,1,9) + e(1,2,9) - x(1,2,10) - e(1,2,10) = 0
 flow(1,3,10): x(1,2,8) + e(1,3,9) - x(1,3,10) - e(1,3,10) = 0
 flow(1,2,11): x(1,1,10) + e(1,2,10) - x(1,2,11) = 0
 flow(1,3,11): x(1,2,9) + e(1,3,10) - x(1,3,11) - e(1,3,11) = 0
 flow(1,3,12): x(1,2,10) + e(1,3,11) - x(1,3,12) - e(1,3,12) = 0
 flow(1,3,13): x(1,2,11) + e(1,3,12) - x(1,3,13) - e(1,3,13) = 0
 flow(1,3,14): e(1,3,13) = 0
 flow(2,1,0): x(2,i,0,1,0) - x(2,1,0) - e(2,1,0) = 0
 flow(2,1,1): e(2,1,0) - x(2,1,1) - e(2,1,1) = 0
 flow(2,3,1): x(2,1,0) - x(2,3,1) - e(2,3,1) = 0
 flow(2,1,2): e(2,1,1) - x(2,1,2) - e(2,1,2) = 0
 flow(2,3,2): x(2,1,1) + e(2,3,1) - x(2,3,2) - e(2,3,2) = 0
 flow(2,1,3): e(2,1,2) - x(2,1,3) - e(2,1,3) = 0
 flow(2,2,3): x(2,3,1) - x(2,2,3) - e(2,2,3) = 0
 flow(2,3,3): x(2,1,2) + e(2,3,2) - x(2,3,3) - e(2,3,3) = 0
 flow(2,1,4): e(2,1,3) - x(2,1,4) - e(2,1,4) = 0
 flow(2,2,4): x(2,3,2) + e(2,2,3) - x(2,2,4) - e(2,2,4) = 0
 flow(2,3,4): x(2,1,3) + e(2,3,3) - x(2,3,4) - e(2,3,4) = 0
 flow(2,1,5): e(2,1,4) - x(2,1,5) - e(2,1,5) = 0
 flow(2,2,5): x(2,3,3) + e(2,2,4) - x(2,2,5) - e(2,2,5) = 0
 flow(2,3,5): x(2,1,4) + e(2,3,4) - x(2,3,5) - e(2,3,5) = 0
 flow(2,1,6): e(2,1,5) - x(2,1,6) - e(2,1,6) = 0
 flow(2,2,6): x(2,3,4) + e(2,2,5) - x(2,2,6) - e(2,2,6) = 0
 flow(2,3,6): x(2,1,5) + e(2,3,5) - x(2,3,6) - e(2,3,6) = 0
 flow(2,1,7): e(2,1,6) - x(2,1,7) - e(2,1,7) = 0
 flow(2,2,7): x(2,3,5) + e(2,2,6) - x(2,2,7) - e(2,2,7) = 0
 flow(2,3,7): x(2,1,6) + e(2,3,6) - x(2,3,7) - e(2,3,7) = 0
 flow(2,1,8): e(2,1,7) - x(2,1,8) - e(2,1,8) = 0
 flow(2,2,8): x(2,3,6) + e(2,2,7) - x(2,2,8) - e(2,2,8) = 0
 flow(2,3,8): x(2,1,7) + e(2,3,7) - x(2,3,8) - e(2,3,8) = 0
 flow(2,1,9): e(2,1,8) - x(2,1,9) - e(2,1,9) = 0
 flow(2,2,9): x(2,3,7) + e(2,2,8) - x(2,2,9) - e(2,2,9) = 0
 flow(2,3,9): x(2,1,8) + e(2,3,8) - x(2,3,9) - e(2,3,9) = 0
 flow(2,1,10): e(2,1,9) - x(2,1,10) = 0
 flow(2,2,10): x(2,3,8) + e(2,2,9) - x(2,2,10) - e(2,2,10) = 0
 flow(2,3,10): x(2,1,9) + e(2,3,9) - x(2,3,10) - e(2,3,10) = 0
 flow(2,2,11): x(2,3,9) + e(2,2,10) - x(2,2,11) - e(2,2,11) = 0
 flow(2,3,11): x(2,1,10) + e(2,3,10) - x(2,3,11) = 0
 flow(2,2,12): x(2,3,10) + e(2,2,11) - x(2,2,12) - e(2,2,12) = 0
 flow(2,2,13): x(2,3,11) + e(2,2,12) - x(2,2,13) - e(2,2,13) = 0
 flow(2,2,14): e(2,2,13) = 0
 flow(3,2,0): x(3,i,0,2,0) - x(3,2,0) - e(3,2,0) = 0
 flow(3,2,1): e(3,2,0) - x(3,2,1) - e(3,2,1) = 0
 flow(3,2,2): e(3,2,1) - x(3,2,2) - e(3,2,2) = 0
 flow(3,2,3): e(3,2,2) - x(3,2,3) - e(3,2,3) = 0
 flow(3,1,4): x(3,2,0) - x(3,1,4) - e(3,1,4) = 0
 flow(3,2,4): e(3,2,3) - x(3,2,4) - e(3,2,4) = 0
 flow(3,1,5): x(3,2,1) + e(3,1,4) - x(3,1,5) - e(3,1,5) = 0
 flow(3,2,5): e(3,2,4) - x(3,2,5) - e(3,2,5) = 0
 flow(3,1,6): x(3,2,2) + e(3,1,5) - x(3,1,6) - e(3,1,6) = 0
 flow(3,2,6): e(3,2,5) - x(3,2,6) - e(3,2,6) = 0
 flow(3,3,6): x(3,1,4) - x(3,3,6) - e(3,3,6) = 0
 flow(3,1,7): x(3,2,3) + e(3,1,6) - x(3,1,7) - e(3,1,7) = 0
 flow(3,2,7): e(3,2,6) - x(3,2,7) - e(3,2,7) = 0
 flow(3,3,7): x(3,1,5) + e(3,3,6) - x(3,3,7) - e(3,3,7) = 0
 flow(3,1,8): x(3,2,4) + e(3,1,7) - x(3,1,8) - e(3,1,8) = 0
 flow(3,2,8): e(3,2,7) - x(3,2,8) = 0
 flow(3,3,8): x(3,1,6) + e(3,3,7) - x(3,3,8) - e(3,3,8) = 0
 flow(3,1,9): x(3,2,5) + e(3,1,8) - x(3,1,9) - e(3,1,9) = 0
 flow(3,3,9): x(3,1,7) + e(3,3,8) - x(3,3,9) - e(3,3,9) = 0
 flow(3,1,10): x(3,2,6) + e(3,1,9) - x(3,1,10) - e(3,1,10) = 0
 flow(3,3,10): x(3,1,8) + e(3,3,9) - x(3,3,10) - e(3,3,10) = 0
 flow(3,1,11): x(3,2,7) + e(3,1,10) - x(3,1,11) - e(3,1,11) = 0
 flow(3,3,11): x(3,1,9) + e(3,3,10) - x(3,3,11) - e(3,3,11) = 0
 flow(3,1,12): x(3,2,8) + e(3,1,11) - x(3,1,12) = 0
 flow(3,3,12): x(3,1,10) + e(3,3,11) - x(3,3,12) - e(3,3,12) = 0
 flow(3,3,13): x(3,1,11) + e(3,3,12) - x(3,3,13) - e(3,3,13) = 0
 flow(3,3,14): x(3,1,12) + e(3,3,13) - x(3,3,14) - e(3,3,14) = 0
 flow(3,3,15): e(3,3,14) = 0
 processing(1,0): x(1,1,0) + x(2,1,0) <= 1
 processing(2,0): x(3,2,0) <= 1
 processing(1,1): x(1,1,1) + x(2,1,1) <= 1
 processing(2,1): x(1,2,1) + x(3,2,0) + x(3,2,1) <= 1
 processing(3,1): x(2,3,1) <= 1
 processing(1,2): x(1,1,2) + x(2,1,2) <= 1
 processing(2,2): x(1,2,1) + x(1,2,2) + x(3,2,0) + x(3,2,1) + x(3,2,2)
   <= 1
 processing(3,2): x(2,3,1) + x(2,3,2) <= 1
 processing(1,3): x(1,1,3) + x(2,1,3) <= 1
 processing(2,3): x(1,2,2) + x(1,2,3) + x(2,2,3) + x(3,2,0) + x(3,2,1)
   + x(3,2,2) + x(3,2,3) <= 1
 processing(3,3): x(1,3,3) + x(2,3,2) + x(2,3,3) <= 1
 processing(1,4): x(1,1,4) + x(2,1,4) + x(3,1,4) <= 1
 processing(2,4): x(1,2,3) + x(1,2,4) + x(2,2,3) + x(2,2,4) + x(3,2,1)
   + x(3,2,2) + x(3,2,3) + x(3,2,4) <= 1
 processing(3,4): x(1,3,3) + x(1,3,4) + x(2,3,3) + x(2,3,4) <= 1
 processing(1,5): x(1,1,5) + x(2,1,5) + x(3,1,4) + x(3,1,5) <= 1
 processing(2,5): x(1,2,4) + x(1,2,5) + x(2,2,4) + x(2,2,5) + x(3,2,2)
   + x(3,2,3) + x(3,2,4) + x(3,2,5) <= 1
 processing(3,5): x(1,3,4) + x(1,3,5) + x(2,3,4) + x(2,3,5) <= 1
 processing(1,6): x(1,1,6) + x(2,1,6) + x(3,1,5) + x(3,1,6) <= 1
 processing(2,6): x(1,2,5) + x(1,2,6) + x(2,2,5) + x(2,2,6) + x(3,2,3)
   + x(3,2,4) + x(3,2,5) + x(3,2,6) <= 1
 processing(3,6): x(1,3,5) + x(1,3,6) + x(2,3,5) + x(2,3,6) + x(3,3,6)
   <= 1
 processing(1,7): x(1,1,7) + x(2,1,7) + x(3,1,6) + x(3,1,7) <= 1
 processing(2,7): x(1,2,6) + x(1,2,7) + x(2,2,6) + x(2,2,7) + x(3,2,4)
   + x(3,2,5) + x(3,2,6) + x(3,2,7) <= 1
 processing(3,7): x(1,3,6) + x(1,3,7) + x(2,3,6) + x(2,3,7) + x(3,3,7)
   <= 1
 processing(1,8): x(1,1,8) + x(2,1,8) + x(3,1,7) + x(3,1,8) <= 1
 processing(2,8): x(1,2,7) + x(1,2,8) + x(2,2,7) + x(2,2,8) + x(3,2,5)
   + x(3,2,6) + x(3,2,7) + x(3,2,8) <= 1
 processing(3,8): x(1,3,7) + x(1,3,8) + x(2,3,7) + x(2,3,8) + x(3,3,8)
   <= 1
 processing(1,9): x(1,1,9) + x(2,1,9) + x(3,1,8) + x(3,1,9) <= 1
 processing(2,9): x(1,2,8) + x(1,2,9) + x(2,2,8) + x(2,2,9) + x(3,2,6)
   + x(3,2,7) + x(3,2,8) <= 1
 processing(3,9): x(1,3,8) + x(1,3,9) + x(2,3,8) + x(2,3,9) + x(3,3,9)
   <= 1
 processing(1,10): x(1,1,10) + x(2,1,10) + x(3,1,9) + x(3,1,10) <= 1
 processing(2,10): x(1,2,9) + x(1,2,10) + x(2,2,9) + x(2,2,10) + x(3,2,7)
   + x(3,2,8) <= 1
 processing(3,10): x(1,3,9) + x(1,3,10) + x(2,3,9) + x(2,3,10) + x(3,3,10)
   <= 1
 processing(1,11): x(3,1,10) + x(3,1,11) <= 1
 processing(2,11): x(1,2,10) + x(1,2,11) + x(2,2,10) + x(2,2,11) + x(3,2,8)
   <= 1
 processing(3,11): x(1,3,10) + x(1,3,11) + x(2,3,10) + x(2,3,11)
   + x(3,3,11) <= 1
 processing(1,12): x(3,1,11) + x(3,1,12) <= 1
 processing(2,12): x(1,2,11) + x(2,2,11) + x(2,2,12) <= 1
 processing(3,12): x(1,3,11) + x(1,3,12) + x(2,3,11) + x(3,3,12) <= 1
 processing(1,13): x(3,1,12) <= 1
 processing(2,13): x(2,2,12) + x(2,2,13) <= 1
 processing(3,13): x(1,3,12) + x(1,3,13) + x(3,3,13) <= 1
 processing(2,14): x(2,2,13) <= 1
 processing(3,14): x(1,3,13) + x(3,3,14) <= 1
 fim(1): - 5 x(1,3,3) - 6 x(1,3,4) - 7 x(1,3,5) - 8 x(1,3,6) - 9 x(1,3,7)
   - 10 x(1,3,8) - 11 x(1,3,9) - 12 x(1,3,10) - 13 x(1,3,11) - 14 x(1,3,12)
   - 15 x(1,3,13) + C >= 0
 fim(2): - 5 x(2,2,3) - 6 x(2,2,4) - 7 x(2,2,5) - 8 x(2,2,6) - 9 x(2,2,7)
   - 10 x(2,2,8) - 11 x(2,2,9) - 12 x(2,2,10) - 13 x(2,2,11) - 14 x(2,2,12)
   - 15 x(2,2,13) + C >= 0
 fim(3): - 7 x(3,3,6) - 8 x(3,3,7) - 9 x(3,3,8) - 10 x(3,3,9)
   - 11 x(3,3,10) - 12 x(3,3,11) - 13 x(3,3,12) - 14 x(3,3,13)
   - 15 x(3,3,14) + C >= 0
Bounds
 C <= 16
Binaries
 x(1,i,0,1,0) x(1,1,0) e(1,1,0) x(1,1,1) e(1,1,1) x(1,1,2) e(1,1,2)
 x(1,1,3) e(1,1,3) x(1,1,4) e(1,1,4) x(1,1,5) e(1,1,5) x(1,1,6) e(1,1,6)
 x(1,1,7) e(1,1,7) x(1,1,8) e(1,1,8) x(1,1,9) e(1,1,9) x(1,1,10) x(1,2,1)
 e(1,2,1) x(1,2,2) e(1,2,2) x(1,2,3) e(1,2,3) x(1,2,4) e(1,2,4) x(1,2,5)
 e(1,2,5) x(1,2,6) e(1,2,6) x(1,2,7) e(1,2,7) x(1,2,8) e(1,2,8) x(1,2,9)
 e(1,2,9) x(1,2,10) e(1,2,10) x(1,2,11) x(1,3,3) e(1,3,3) x(1,3,4) e(1,3,4)
 x(1,3,5) e(1,3,5) x(1,3,6) e(1,3,6) x(1,3,7) e(1,3,7) x(1,3,8) e(1,3,8)
 x(1,3,9) e(1,3,9) x(1,3,10) e(1,3,10) x(1,3,11) e(1,3,11) x(1,3,12)
 e(1,3,12) x(1,3,13) e(1,3,13) x(2,i,0,1,0) x(2,1,0) e(2,1,0) x(2,1,1)
 e(2,1,1) x(2,1,2) e(2,1,2) x(2,1,3) e(2,1,3) x(2,1,4) e(2,1,4) x(2,1,5)
 e(2,1,5) x(2,1,6) e(2,1,6) x(2,1,7) e(2,1,7) x(2,1,8) e(2,1,8) x(2,1,9)
 e(2,1,9) x(2,1,10) x(2,3,1) e(2,3,1) x(2,3,2) e(2,3,2) x(2,3,3) e(2,3,3)
 x(2,3,4) e(2,3,4) x(2,3,5) e(2,3,5) x(2,3,6) e(2,3,6) x(2,3,7) e(2,3,7)
 x(2,3,8) e(2,3,8) x(2,3,9) e(2,3,9) x(2,3,10) e(2,3,10) x(2,3,11) x(2,2,3)
 e(2,2,3) x(2,2,4) e(2,2,4) x(2,2,5) e(2,2,5) x(2,2,6) e(2,2,6) x(2,2,7)
 e(2,2,7) x(2,2,8) e(2,2,8) x(2,2,9) e(2,2,9) x(2,2,10) e(2,2,10) x(2,2,11)
 e(2,2,11) x(2,2,12) e(2,2,12) x(2,2,13) e(2,2,13) x(3,i,0,2,0) x(3,2,0)
 e(3,2,0) x(3,2,1) e(3,2,1) x(3,2,2) e(3,2,2) x(3,2,3) e(3,2,3) x(3,2,4)
 e(3,2,4) x(3,2,5) e(3,2,5) x(3,2,6) e(3,2,6) x(3,2,7) e(3,2,7) x(3,2,8)
 x(3,1,4) e(3,1,4) x(3,1,5) e(3,1,5) x(3,1,6) e(3,1,6) x(3,1,7) e(3,1,7)
 x(3,1,8) e(3,1,8) x(3,1,9) e(3,1,9) x(3,1,10) e(3,1,10) x(3,1,11)
 e(3,1,11) x(3,1,12) x(3,3,6) e(3,3,6) x(3,3,7) e(3,3,7) x(3,3,8) e(3,3,8)
 x(3,3,9) e(3,3,9) x(3,3,10) e(3,3,10) x(3,3,11) e(3,3,11) x(3,3,12)
 e(3,3,12) x(3,3,13) e(3,3,13) x(3,3,14) e(3,3,14)
Generals
 C
End
